0 654 295
1 303 149
2 176 469
3 162 101
4 18 262
5 35 67
6 745 252
7 426 381
8 568 821
9 64 207
10 87 361
11 599 236
12 752 497
13 389 236
14 754 213
15 710 510
16 148 382
17 67 63
18 25 265
19 206 160
20 56 46
21 58 749
22 698 225
23 595 732
24 58 177
25 191 61
26 30 44
27 168 220
28 415 318
29 218 699
30 571 166
31 415 48
32 342 269
33 166 433
34 275 501
35 275 268
36 544 161
37 50 381
38 241 313
39 158 561
40 125 693
41 490 188
42 33 50
43 40 928
44 249 975
45 38 630
46 524 530
47 124 10
48 789 658
49 43 27
50 50 156
51 250 24
52 720 674
53 256 887
54 9 162
55 434 139
56 91 413
57 43 280
58 68 31
59 252 329
60 250 923
61 27 204
62 7 293
63 660 296
64 5 13
65 194 286
66 285 145
67 1 110
68 575 132
69 143 433
70 511 97
71 27 339
72 653 472